(set-info :smt-lib-version 2.6)
(set-logic QF_S)
(set-info :source |
Generated by: Hung-En Wang, Tzung-Lin Tsai, Chun-Han Lin, Fang Yu, and Jie-Hong R. Jiang
Generated on: 2019-02-28
Generator: Stranger
Application: Security analysis of string manipulating web applications
Target solver: CVC4, Norn, Z3-str2
Publication:
Hung-En Wang, Tzung-Lin Tsai, Chun-Han Lin, Fang Yu, Jie-Hong R. Jiang:
String Analysis via Automata Manipulation with Logic Circuit Representation. CAV (1) 2016: 241-260.
|)
(set-info :license "https://creativecommons.org/licenses/by/4.0/")
(set-info :category "industrial")
(set-info :status unknown)

(declare-fun sigmaStar_0 () String)
(declare-fun literal_21 () String)
(declare-fun x_23 () String)
(declare-fun literal_20 () String)
(declare-fun literal_19 () String)
(declare-fun x_25 () String)
(declare-fun literal_27 () String)
(declare-fun x_28 () String)
(declare-fun literal_26 () String)
(declare-fun x_29 () String)
(declare-fun literal_30 () String)
(declare-fun x_31 () String)
(assert (= literal_21 "\u{5c}\u{22}\u{20}"))
(assert (= literal_20 ""))
(assert (= literal_19 "\u{63}\u{6c}\u{61}\u{73}\u{73}\u{3d}\u{22}\u{64}\u{69}\u{6d}\u{6d}\u{65}\u{64}\u{22}"))
(assert (or (= x_23 literal_20) (= x_23 literal_19)))
(assert (= x_25 (str.++ literal_21 x_23)))
(assert (= literal_27 "\u{3e}"))
(assert (= x_28 (str.++ x_25 literal_27)))
(assert (= literal_26 "\u{3c}\u{75}\u{6c}\u{3e}\u{3c}\u{68}\u{34}\u{3e}\u{3c}\u{69}\u{6d}\u{67}\u{20}\u{73}\u{72}\u{63}\u{3d}\u{5c}\u{22}\u{2f}\u{2f}\u{69}\u{63}\u{6f}\u{6e}\u{2e}\u{67}\u{69}\u{66}\u{22}\u{68}\u{65}\u{69}\u{67}\u{68}\u{74}\u{3d}\u{22}\u{31}\u{36}\u{22}\u{20}\u{77}\u{69}\u{64}\u{74}\u{68}\u{3d}\u{22}\u{31}\u{36}\u{22}\u{20}\u{61}\u{6c}\u{74}\u{3d}\u{22}\u{22}\u{20}\u{2f}\u{3e}\u{20}\u{20}\u{3c}\u{61}\u{20}\u{68}\u{72}\u{65}\u{66}\u{3d}\u{5c}\u{22}\u{2f}\u{6d}\u{6f}\u{64}\u{2f}\u{2f}\u{76}\u{69}\u{65}\u{77}\u{2e}\u{70}\u{68}\u{70}\u{3f}\u{69}\u{64}\u{3d}"))
(assert (= x_29 (str.++ literal_26 x_28)))
(assert (= literal_30 "\u{3c}\u{2f}\u{61}\u{3e}\u{3c}\u{2f}\u{68}\u{34}\u{3e}\u{3c}\u{2f}\u{75}\u{6c}\u{3e}"))
(assert (= x_31 (str.++ x_29 literal_30)))
(assert (str.in_re x_31 (re.++ (re.* re.allchar) (re.++ (str.to_re "\u{5c}\u{3c}\u{53}\u{43}\u{52}\u{49}\u{50}\u{54}") (re.* re.allchar)))))
(check-sat)
(exit)
